
  32    4
  10   10   10   10

   0   0   0   0   0   1 2 
   4   1   2   1   0   1 3 
   1   6   2   6   0   1 4 
   5   2   0   3   1   1 5 
   3   0   4   2   2   1 6 
  10   2   4   0   4   1 7 
   6   6   4   0   3   1 8 
   6   7   4   0   4   1 9 
   6   9   6   6   0   1 10 
   8   2  10   0   2   1 11 
   1   3   0   6   6   1 12 
   1   2   4   4   0   1 13 
   2   4   4   0   5   1 14 
   2   5   6   0   5   2 20 15 
   4   2   0   1   6   1 16 
  10   3   0   7   4   1 17 
   8   4   0   5   6   1 18 
   5   5   4   3   0   2 31 19 
   7   5   3   6   0   1 21 
   1   3   2   0   9   1 21 
   4   1   4   6   0   1 22 
   4   5   0   3   6   1 23 
   3   5   5   4   0   1 24 
   7   2   2   0   5   1 25 
   1   4   3   4   0   1 26 
   6   0   5   4   3   2 30 27 
   8   8   3   4   0   1 28 
   3   0   6   2   2   1 29 
   7   0   4   4   2   1 32
   3   0   3   3   2   1 32
   6   0   2   4   3   1 32
   0   0   0   0   0   0 
